p cnf 193 526
-34 -24 0
-34 -31 0
34 24 31 0
-35 18 0
-35 -34 0
35 -18 34 0
-36 16 -15 0
-36 -16 15 0
36 16 15 0
36 -16 -15 0
-37 36 -10 0
-37 -36 10 0
37 36 10 0
37 -36 -10 0
-38 37 -9 0
-38 -37 9 0
38 37 9 0
38 -37 -9 0
-39 21 0
-39 -33 0
39 -21 33 0
-40 39 38 0
-40 -39 -38 0
40 39 -38 0
40 -39 38 0
-41 3 -2 0
-41 -3 2 0
41 3 2 0
41 -3 -2 0
-42 41 -1 0
-42 -41 1 0
42 41 1 0
42 -41 -1 0
-43 7 -6 0
-43 -7 6 0
43 7 6 0
43 -7 -6 0
-44 43 -5 0
-44 -43 5 0
44 43 5 0
44 -43 -5 0
-45 -44 -42 0
-45 44 42 0
45 -44 42 0
45 44 -42 0
-46 8 -4 0
-46 -8 4 0
46 8 4 0
46 -8 -4 0
-47 46 45 0
-47 -46 -45 0
47 46 -45 0
47 -46 45 0
-48 -47 -40 0
-48 47 40 0
48 -47 40 0
48 47 -40 0
-49 -31 0
-49 48 0
49 31 -48 0
-50 17 0
-50 -34 0
50 -17 34 0
-51 -50 49 0
-51 50 -49 0
51 -50 -49 0
51 50 49 0
-52 -35 0
-52 -51 0
52 35 51 0
-53 23 0
-53 -31 0
53 -23 31 0
-54 20 0
-54 -53 0
54 -20 53 0
-55 -14 4 0
-55 14 -4 0
55 -14 -4 0
55 14 4 0
-56 22 0
-56 -33 0
56 -22 33 0
-57 56 55 0
-57 -56 -55 0
57 56 -55 0
57 -56 55 0
-58 42 37 0
-58 -42 -37 0
58 42 -37 0
58 -42 37 0
-59 13 -12 0
-59 -13 12 0
59 13 12 0
59 -13 -12 0
-60 59 -11 0
-60 -59 11 0
60 59 11 0
60 -59 -11 0
-61 60 58 0
-61 -60 -58 0
61 60 -58 0
61 -60 58 0
-62 61 57 0
-62 -61 -57 0
62 61 -57 0
62 -61 57 0
-63 -31 0
-63 -62 0
63 31 62 0
-64 63 -25 0
-64 -63 25 0
64 63 25 0
64 -63 -25 0
-65 -54 0
-65 -64 0
65 54 64 0
-66 -14 9 0
-66 14 -9 0
66 -14 -9 0
66 14 9 0
-67 66 -16 0
-67 -66 16 0
67 66 16 0
67 -66 -16 0
-68 10 -7 0
-68 -10 7 0
68 10 7 0
68 -10 -7 0
-69 68 -4 0
-69 -68 4 0
69 68 4 0
69 -68 -4 0
-70 69 -67 0
-70 -69 67 0
70 69 67 0
70 -69 -67 0
-71 20 0
-71 23 0
71 -20 -23 0
-72 -33 0
-72 71 0
72 33 -71 0
-73 -72 -13 0
-73 72 13 0
73 -72 13 0
73 72 -13 0
-74 73 70 0
-74 -73 -70 0
74 73 -70 0
74 -73 70 0
-75 -31 0
-75 -74 0
75 31 74 0
-76 19 0
-76 -53 0
76 -19 53 0
-77 -76 75 0
-77 76 -75 0
77 -76 -75 0
77 76 75 0
-78 17 0
-78 -24 0
78 -17 24 0
-79 -33 0
-79 78 0
79 33 -78 0
-80 79 1 0
-80 -79 -1 0
80 79 -1 0
80 -79 1 0
-81 -60 -37 0
-81 60 37 0
81 -60 37 0
81 60 -37 0
-82 81 44 0
-82 -81 -44 0
82 81 -44 0
82 -81 44 0
-83 82 -80 0
-83 -82 80 0
83 82 80 0
83 -82 -80 0
-84 -31 0
-84 -83 0
84 31 83 0
-85 84 -26 0
-85 -84 26 0
85 84 26 0
85 -84 -26 0
-86 77 0
-86 -85 0
86 -77 85 0
-87 8 -6 0
-87 -8 6 0
87 8 6 0
87 -8 -6 0
-88 87 -3 0
-88 -87 3 0
88 87 3 0
88 -87 -3 0
-89 15 -10 0
-89 -15 10 0
89 15 10 0
89 -15 -10 0
-90 89 -12 0
-90 -89 12 0
90 89 12 0
90 -89 -12 0
-91 -90 88 0
-91 90 -88 0
91 -90 -88 0
91 90 88 0
-92 19 0
-92 23 0
92 -19 -23 0
-93 -33 0
-93 92 0
93 33 -92 0
-94 93 91 0
-94 -93 -91 0
94 93 -91 0
94 -93 91 0
-95 -31 0
-95 -94 0
95 31 94 0
-96 95 -28 0
-96 -95 28 0
96 95 28 0
96 -95 -28 0
-97 18 0
-97 -24 0
97 -18 24 0
-98 -33 0
-98 97 0
98 33 -97 0
-99 98 15 0
-99 -98 -15 0
99 98 -15 0
99 -98 15 0
-100 99 -11 0
-100 -99 11 0
100 99 11 0
100 -99 -11 0
-101 -100 67 0
-101 100 -67 0
101 -100 -67 0
101 100 67 0
-102 8 -5 0
-102 -8 5 0
102 8 5 0
102 -8 -5 0
-103 102 -2 0
-103 -102 2 0
103 102 2 0
103 -102 -2 0
-104 -103 101 0
-104 103 -101 0
104 -103 -101 0
104 103 101 0
-105 -31 0
-105 -104 0
105 31 104 0
-106 105 -27 0
-106 -105 27 0
106 105 27 0
106 -105 -27 0
-107 96 0
-107 106 0
107 -96 -106 0
-108 23 0
-108 24 0
108 -23 -24 0
-109 -29 0
-109 31 0
109 29 -31 0
-110 33 0
-110 109 0
110 -33 -109 0
-111 -108 0
-111 110 0
111 108 -110 0
-112 32 0
-112 -33 0
112 -32 33 0
-113 -108 0
-113 112 0
113 108 -112 0
-114 -111 0
-114 -113 0
114 111 113 0
-115 52 0
-115 65 0
115 -52 -65 0
-116 86 0
-116 115 0
116 -86 -115 0
-117 107 0
-117 116 0
117 -107 -116 0
-118 -114 0
-118 117 0
118 114 -117 0
-119 77 0
-119 85 0
119 -77 -85 0
-120 96 0
-120 -106 0
120 -96 106 0
-121 115 0
-121 119 0
121 -115 -119 0
-122 120 0
-122 121 0
122 -120 -121 0
-123 -114 0
-123 122 0
123 114 -122 0
-124 -96 0
-124 106 0
124 96 -106 0
-125 121 0
-125 124 0
125 -121 -124 0
-126 -114 0
-126 125 0
126 114 -125 0
-127 -77 0
-127 85 0
127 77 -85 0
-128 115 0
-128 127 0
128 -115 -127 0
-129 107 0
-129 128 0
129 -107 -128 0
-130 -114 0
-130 129 0
130 114 -129 0
-131 -77 0
-131 -85 0
131 77 85 0
-132 -30 0
-132 31 0
132 30 -31 0
-133 33 0
-133 132 0
133 -33 -132 0
-134 -108 0
-134 133 0
134 108 -133 0
-135 -113 0
-135 -134 0
135 113 134 0
-136 115 0
-136 131 0
136 -115 -131 0
-137 124 0
-137 136 0
137 -124 -136 0
-138 -135 0
-138 137 0
138 135 -137 0
-139 -96 0
-139 -106 0
139 96 106 0
-140 116 0
-140 139 0
140 -116 -139 0
-141 -135 0
-141 140 0
141 135 -140 0
-142 120 0
-142 136 0
142 -120 -136 0
-143 -135 0
-143 142 0
143 135 -142 0
-144 -54 0
-144 64 0
144 54 -64 0
-145 52 0
-145 144 0
145 -52 -144 0
-146 86 0
-146 145 0
146 -86 -145 0
-147 120 0
-147 146 0
147 -120 -146 0
-148 -114 0
-148 147 0
148 114 -147 0
-149 124 0
-149 146 0
149 -124 -146 0
-150 -114 0
-150 149 0
150 114 -149 0
-151 131 0
-151 145 0
151 -131 -145 0
-152 107 0
-152 151 0
152 -107 -151 0
-153 -114 0
-153 152 0
153 114 -152 0
-154 119 0
-154 145 0
154 -119 -145 0
-155 139 0
-155 154 0
155 -139 -154 0
-156 -114 0
-156 155 0
156 114 -155 0
-157 127 0
-157 145 0
157 -127 -145 0
-158 120 0
-158 157 0
158 -120 -157 0
-159 -135 0
-159 158 0
159 135 -158 0
-160 -35 0
-160 51 0
160 35 -51 0
-161 65 0
-161 160 0
161 -65 -160 0
-162 86 0
-162 161 0
162 -86 -161 0
-163 120 0
-163 162 0
163 -120 -162 0
-164 -135 0
-164 163 0
164 135 -163 0
-165 124 0
-165 162 0
165 -124 -162 0
-166 -135 0
-166 165 0
166 135 -165 0
-167 131 0
-167 161 0
167 -131 -161 0
-168 107 0
-168 167 0
168 -107 -167 0
-169 -135 0
-169 168 0
169 135 -168 0
-170 127 0
-170 161 0
170 -127 -161 0
-171 120 0
-171 170 0
171 -120 -170 0
-172 -135 0
-172 171 0
172 135 -171 0
-173 -118 0
-173 -123 0
173 118 123 0
-174 -126 0
-174 173 0
174 126 -173 0
-175 -130 0
-175 174 0
175 130 -174 0
-176 -148 0
-176 175 0
176 148 -175 0
-177 -150 0
-177 176 0
177 150 -176 0
-178 -153 0
-178 177 0
178 153 -177 0
-179 -156 0
-179 178 0
179 156 -178 0
-180 -138 0
-180 -159 0
180 138 159 0
-181 -164 0
-181 180 0
181 164 -180 0
-182 -166 0
-182 181 0
182 166 -181 0
-183 -169 0
-183 182 0
183 169 -182 0
-184 -172 0
-184 183 0
184 172 -183 0
-185 -141 0
-185 184 0
185 141 -184 0
-186 -143 0
-186 185 0
186 143 -185 0
-187 179 0
-187 186 0
187 -179 -186 0
188 32 -33 0
-189 26 0
-189 31 0
189 -26 -31 0
-190 -187 0
-190 189 0
190 187 -189 0
-191 190 82 0
-191 -190 -82 0
191 190 -82 0
191 -190 82 0
192 191 80 0
192 -191 -80 0
-193 -188 0
-193 -192 0
193 0
